17  ,     39
34  ,1286
36  ,  1473
39  , 1530
43  ,5620
45  , 1613
48  ,14422
53  , 6905
56  ,1608
65  ,1839
70  , 38673
71  ,1950
100 ,36230
171 ,2755
323 , 1326
358 ,1163
403 ,2465
443 ,2720






